60 60
60 45 1
3 56 1
13 63 1
79 19 1
24 16 1
2 74 1
4 49 1
50 31 1
97 41 1
34 35 1
83 2 1
99 64 1
71 76 1
21 28 1
5 42 1
13 73 1
65 11 1
18 77 1
61 27 1
15 49 1
37 67 1
14 36 1
71 44 1
61 13 1
74 100 1
32 94 1
91 15 1
40 21 1
100 99 1
27 73 1
11 97 1
73 61 1
69 87 1
88 30 1
52 79 1
17 56 1
71 18 1
37 52 1
70 82 1
60 62 1
28 81 1
30 63 1
54 61 1
24 66 1
95 100 1
55 17 1
27 7 1
66 93 1
61 29 1
35 4 1
43 41 1
73 96 1
49 57 1
25 46 1
91 19 1
69 65 1
14 6 1
15 98 1
95 29 1
8 22 1
300 300 
300 300 
300 300 
300 300 
300 300 
300 300 
300 300 
300 300 
300 300 
300 300 
300 300 
300 300 
300 300 
300 300 
300 300 
300 300 
300 300 
300 300 
300 300 
300 300 
300 300 
300 300 
300 300 
300 300 
300 300 
300 300 
300 300 
300 300 
300 300 
300 300 
300 300 
300 300 
300 300 
300 300 
300 300 
300 300 
300 300 
300 300 
300 300 
300 300 
300 300 
300 300 
300 300 
300 300 
300 300 
300 300 
300 300 
300 300 
300 300 
300 300 
300 300 
300 300 
300 300 
300 300 
300 300 
300 300 
300 300 
300 300 
300 300 
300 300 
